&CONTROL
   calculation      = 'scf'
   restart_mode     = 'from_scratch'
   tstress          = .true.
   tprnfor          = .true.
   outdir           = 'RuO2_out'
   prefix           = 'RuO2'
   pseudo_dir       = './pseudos'
/
&SYSTEM
   ecutwfc          = 40
   ecutrho          = 320
   occupations      = 'smearing'
   degauss          = 0.01
   smearing         = 'gauss'
   ntyp             = 2
   nat              = 6
   ibrav            = 0
/
&ELECTRONS
   conv_thr         = 1e-08
   mixing_beta      = 0.7
/
&IONS
/
&CELL
/
&FCP
/
&RISM
/
ATOMIC_SPECIES
Ru 101.07 ru_pbesol_v1.2.uspp.F.UPF
O 15.999 o_pbesol_v1.2.uspp.F.UPF

K_POINTS automatic
4 4 4  0 0 0

CELL_PARAMETERS angstrom
4.49680000000000 0.00000000000000 0.00000000000000
0.00000000000000 4.49680000000000 0.00000000000000
0.00000000000000 0.00000000000000 3.10490000000000

ATOMIC_POSITIONS angstrom
Ru 0.0000000000 0.0000000000 0.0000000000  
Ru 2.2484000000 2.2484000000 1.5524500000  
O 1.3728730400 1.3728730400 0.0000000000  
O 3.1239269600 3.1239269600 0.0000000000  
O 3.6212730400 0.8755269600 1.5524500000  
O 0.8755269600 3.6212730400 1.5524500000  

HUBBARD (ortho-atomic)
U Ru-4d 5.0
